
n_res = 4;
rcap = [51, 48, 247, 252];
rtype = [1, 1, 2, 2];
n_tasks = 50;
modes =  [{1, 2, 3}, {4, 5, 6}, {7, 8, 9}, {10, 11, 12}, {13, 14, 15}, {16, 17, 18}, {19, 20, 21}, {22, 23, 24}, {25, 26, 27}, {28, 29, 30}, {31, 32, 33}, {34, 35, 36}, {37, 38, 39}, {40, 41, 42}, {43, 44, 45}, {46, 47, 48}, {49, 50, 51}, {52, 53, 54}, {55, 56, 57}, {58, 59, 60}, {61, 62, 63}, {64, 65, 66}, {67, 68, 69}, {70, 71, 72}, {73, 74, 75}, {76, 77, 78}, {79, 80, 81}, {82, 83, 84}, {85, 86, 87}, {88, 89, 90}, {91, 92, 93}, {94, 95, 96}, {97, 98, 99}, {100, 101, 102}, {103, 104, 105}, {106, 107, 108}, {109, 110, 111}, {112, 113, 114}, {115, 116, 117}, {118, 119, 120}, {121, 122, 123}, {124, 125, 126}, {127, 128, 129}, {130, 131, 132}, {133, 134, 135}, {136, 137, 138}, {139, 140, 141}, {142, 143, 144}, {145, 146, 147}, {148, 149, 150}];
succ =  [{50, 49, 48, 45, 30, 29, 25, 20, 19, 8}, {50, 46, 33, 31, 23, 13, 7}, {49, 46, 42, 37, 32, 28, 27, 21, 13}, {48, 47, 45, 44, 43, 42, 41, 39, 38, 32, 30, 29, 28, 27, 24}, {49, 48, 46, 45, 44, 43, 42, 41, 39, 38, 34, 31, 27, 24}, {49, 47, 46, 44, 42, 41, 40, 32, 30, 27, 26, 21}, {49, 48, 47, 45, 44, 43, 42, 41, 16}, {47, 46, 43, 41, 40, 38, 33, 32, 31, 23, 22}, {48, 46, 44, 43, 42, 31, 30, 23, 18}, {50, 47, 45, 43, 42, 39, 38, 37, 35, 30, 28}, {48, 47, 46, 39, 38, 31, 30, 27, 23}, {49, 44, 42, 41, 39, 37, 34, 30}, {48, 47, 44, 43, 41, 39, 35, 30}, {45, 41, 40, 39, 38, 23}, {40, 38, 35, 30, 22}, {40, 39, 38, 37, 30, 27}, {45, 38, 37, 35, 30, 28}, {41, 40, 38, 37, 36, 32}, {46, 42, 39, 37, 36, 31}, {46, 43, 38, 37, 36, 35}, {45, 39, 38, 36, 35}, {42, 39, 37, 36}, {37, 36, 35}, {40, 37, 35}, {44, 41, 38}, {43, 36, 35}, {36, 35}, {40, 36}, {37, 36}, {36}, {35}, {35}, {37}, {35}, {}, {}, {}, {}, {}, {}, {}, {}, {}, {}, {}, {}, {}, {}, {}, {}];
n_opt = 150;
dur = [1, 3, 5, 2, 5, 7, 5, 7, 9, 3, 4, 9, 3, 9, 10, 6, 7, 8, 1, 2, 8, 1, 7, 8, 8, 9, 10, 4, 5, 6, 6, 7, 9, 1, 2, 7, 2, 9, 10, 2, 6, 9, 3, 9, 10, 3, 6, 8, 6, 7, 9, 7, 8, 9, 6, 7, 8, 4, 5, 7, 2, 6, 7, 6, 8, 10, 6, 7, 9, 1, 9, 10, 1, 5, 8, 3, 8, 10, 1, 2, 10, 1, 4, 10, 4, 5, 6, 2, 3, 4, 3, 6, 9, 5, 8, 10, 1, 2, 4, 5, 8, 10, 1, 2, 5, 2, 3, 6, 7, 8, 10, 3, 4, 6, 5, 6, 7, 3, 9, 10, 2, 3, 5, 1, 6, 10, 2, 5, 10, 1, 7, 8, 1, 3, 5, 1, 3, 4, 1, 5, 8, 2, 5, 8, 2, 3, 6, 4, 7, 8];
rreq = [|8, 8, 8, 8, 6, 4, 3, 2, 2, 7, 6, 6, 7, 5, 5, 4, 3, 2, 7, 5, 3, 9, 7, 3, 9, 5, 4, 9, 6, 5, 5, 4, 1, 1, 1, 1, 10, 8, 6, 3, 3, 3, 6, 3, 1, 6, 5, 4, 5, 4, 4, 6, 5, 1, 8, 6, 3, 3, 2, 2, 4, 3, 2, 7, 6, 1, 10, 9, 8, 9, 8, 7, 6, 5, 5, 7, 3, 2, 9, 7, 2, 10, 9, 9, 3, 2, 1, 7, 4, 3, 3, 3, 1, 8, 7, 7, 4, 4, 4, 8, 7, 4, 7, 6, 6, 4, 4, 4, 7, 7, 7, 8, 6, 5, 7, 4, 3, 9, 8, 8, 7, 6, 6, 7, 7, 7, 9, 8, 7, 8, 6, 2, 4, 3, 2, 5, 3, 3, 3, 3, 1, 8, 7, 5, 6, 5, 4, 3, 3, 2
 |9, 9, 8, 10, 8, 8, 4, 2, 1, 5, 5, 3, 9, 9, 8, 1, 1, 1, 6, 5, 4, 7, 4, 3, 5, 5, 5, 4, 4, 3, 2, 1, 1, 2, 2, 1, 8, 8, 8, 5, 3, 3, 8, 7, 7, 3, 2, 2, 7, 5, 5, 7, 5, 3, 4, 4, 2, 7, 7, 6, 8, 7, 6, 10, 7, 6, 8, 4, 3, 10, 5, 4, 8, 8, 8, 7, 6, 5, 9, 5, 5, 3, 2, 2, 9, 4, 2, 6, 5, 5, 6, 5, 1, 7, 6, 5, 3, 3, 3, 10, 8, 6, 9, 8, 6, 7, 6, 4, 5, 3, 3, 6, 5, 5, 10, 6, 3, 5, 3, 3, 4, 4, 3, 4, 4, 3, 8, 4, 4, 7, 7, 7, 10, 6, 6, 7, 6, 4, 7, 5, 4, 7, 4, 2, 2, 1, 1, 3, 2, 2
 |3, 3, 2, 10, 7, 5, 4, 4, 3, 9, 7, 7, 7, 5, 3, 1, 1, 1, 10, 6, 6, 6, 4, 3, 5, 5, 5, 5, 4, 3, 7, 7, 6, 7, 6, 6, 4, 2, 2, 4, 2, 2, 6, 6, 6, 7, 6, 3, 8, 6, 6, 5, 5, 5, 3, 3, 3, 6, 4, 2, 7, 6, 5, 5, 5, 5, 10, 10, 10, 10, 6, 5, 6, 4, 1, 9, 7, 5, 7, 7, 6, 7, 6, 4, 8, 8, 7, 9, 6, 2, 5, 5, 5, 6, 4, 3, 9, 5, 3, 7, 5, 5, 2, 1, 1, 8, 5, 4, 9, 5, 4, 9, 8, 8, 9, 8, 8, 9, 9, 8, 3, 3, 3, 6, 4, 3, 8, 6, 6, 8, 5, 4, 6, 6, 4, 9, 8, 6, 10, 8, 8, 3, 1, 1, 3, 3, 1, 7, 6, 5
 |6, 4, 2, 10, 9, 9, 8, 3, 3, 8, 8, 7, 6, 5, 3, 9, 6, 4, 10, 8, 7, 5, 4, 2, 5, 5, 5, 7, 7, 6, 3, 3, 2, 8, 7, 6, 5, 5, 2, 7, 4, 3, 9, 6, 4, 9, 8, 6, 5, 4, 3, 8, 6, 5, 4, 4, 4, 8, 7, 7, 10, 8, 8, 8, 8, 5, 9, 8, 7, 5, 2, 2, 9, 7, 6, 4, 4, 4, 10, 10, 10, 4, 3, 1, 9, 7, 5, 4, 4, 4, 6, 3, 3, 7, 6, 4, 6, 5, 5, 9, 8, 7, 10, 7, 5, 5, 5, 4, 9, 5, 5, 10, 4, 3, 2, 2, 2, 4, 2, 1, 8, 7, 7, 7, 7, 6, 9, 7, 7, 1, 1, 1, 3, 3, 1, 6, 5, 5, 5, 5, 5, 1, 1, 1, 6, 4, 1, 10, 8, 8|];